56341
34, 9, 14, 2, 11, 45, 42, 33, 27, 1, 31, 25, 52, 15, 16, 39, 46, 36, 29, 10, 22, 12, 18, 4, 30, 54, 47, 26, 49, 55, 28, 6, 3, 43, 13, 51, 40, 7, 20, 50, 24, 35, 37, 5, 41, 32, 8, 38, 44, 19, 48, 17, 21, 23, 53
